(set-info :smt-lib-version 2.6)
(set-logic QF_LRA)
(set-info :source |
Fully parameterized specification and verification of a synchronizer   
circuit modeling metastability at various levels of refinement.     
A paper describing this specification, to be published in Designing     
Correct Circuits (DCC), 2006, is available from the authors.            

Geoffrey Brown, Indiana University <geobrown@cs.indiana.edu>
Lee Pike, Galois Connections, Inc. <leepike@galois.com>

Translated into CVC format by Leonardo de Moura.

This benchmark was automatically translated into SMT-LIB format from
CVC format using CVC Lite

|)
(set-info :category "industrial")
(set-info :status sat)
(declare-fun x_0 () Bool)
(declare-fun x_1 () Bool)
(declare-fun x_2 () Real)
(declare-fun x_3 () Real)
(declare-fun x_4 () Bool)
(declare-fun x_5 () Bool)
(declare-fun x_6 () Real)
(declare-fun x_7 () Real)
(declare-fun x_8 () Bool)
(declare-fun x_9 () Bool)
(declare-fun x_10 () Real)
(declare-fun x_11 () Real)
(declare-fun x_12 () Bool)
(declare-fun x_13 () Bool)
(declare-fun x_14 () Real)
(declare-fun x_15 () Real)
(declare-fun x_16 () Bool)
(declare-fun x_17 () Bool)
(declare-fun x_18 () Real)
(declare-fun x_19 () Real)
(declare-fun x_20 () Bool)
(declare-fun x_21 () Bool)
(declare-fun x_22 () Real)
(declare-fun x_23 () Real)
(declare-fun x_24 () Bool)
(declare-fun x_25 () Bool)
(declare-fun x_26 () Real)
(declare-fun x_27 () Real)
(declare-fun x_28 () Bool)
(declare-fun x_29 () Bool)
(declare-fun x_30 () Real)
(declare-fun x_31 () Real)
(declare-fun x_32 () Bool)
(declare-fun x_33 () Bool)
(declare-fun x_34 () Real)
(declare-fun x_35 () Real)
(declare-fun x_36 () Bool)
(declare-fun x_37 () Bool)
(declare-fun x_38 () Real)
(declare-fun x_39 () Real)
(declare-fun x_40 () Bool)
(declare-fun x_41 () Bool)
(declare-fun x_42 () Real)
(declare-fun x_43 () Real)
(declare-fun x_44 () Bool)
(declare-fun x_45 () Bool)
(declare-fun x_46 () Real)
(declare-fun x_47 () Real)
(declare-fun x_48 () Real)
(declare-fun x_49 () Real)
(declare-fun x_50 () Real)
(declare-fun x_51 () Real)
(declare-fun x_52 () Real)
(declare-fun x_53 () Real)
(declare-fun x_54 () Real)
(declare-fun x_55 () Real)
(declare-fun x_56 () Real)
(declare-fun x_57 () Real)
(declare-fun x_58 () Bool)
(declare-fun x_59 () Bool)
(declare-fun x_60 () Real)
(declare-fun x_61 () Real)
(declare-fun x_62 () Real)
(declare-fun x_63 () Real)
(declare-fun x_64 () Bool)
(declare-fun x_65 () Bool)
(declare-fun x_66 () Bool)
(declare-fun x_67 () Bool)
(declare-fun x_68 () Bool)
(declare-fun x_69 () Real)
(declare-fun x_70 () Bool)
(declare-fun x_71 () Real)
(declare-fun x_72 () Real)
(declare-fun x_73 () Real)
(declare-fun x_74 () Real)
(declare-fun x_75 () Real)
(declare-fun x_76 () Real)
(declare-fun x_77 () Real)
(declare-fun x_78 () Real)
(declare-fun x_79 () Real)
(declare-fun x_80 () Bool)
(declare-fun x_81 () Real)
(declare-fun x_82 () Bool)
(declare-fun x_83 () Bool)
(declare-fun x_84 () Real)
(declare-fun x_85 () Bool)
(declare-fun x_86 () Real)
(declare-fun x_87 () Real)
(declare-fun x_88 () Real)
(declare-fun x_89 () Real)
(declare-fun x_90 () Real)
(declare-fun x_91 () Real)
(declare-fun x_92 () Real)
(declare-fun x_93 () Real)
(declare-fun x_94 () Bool)
(declare-fun x_95 () Real)
(declare-fun x_96 () Bool)
(declare-fun x_97 () Bool)
(declare-fun x_98 () Real)
(declare-fun x_99 () Bool)
(declare-fun x_100 () Real)
(declare-fun x_101 () Real)
(declare-fun x_102 () Real)
(declare-fun x_103 () Real)
(declare-fun x_104 () Real)
(declare-fun x_105 () Real)
(declare-fun x_106 () Real)
(declare-fun x_107 () Real)
(declare-fun x_108 () Bool)
(declare-fun x_109 () Real)
(declare-fun x_110 () Bool)
(declare-fun x_111 () Bool)
(declare-fun x_112 () Real)
(declare-fun x_113 () Bool)
(declare-fun x_114 () Real)
(declare-fun x_115 () Real)
(declare-fun x_116 () Real)
(declare-fun x_117 () Real)
(declare-fun x_118 () Real)
(declare-fun x_119 () Real)
(declare-fun x_120 () Real)
(declare-fun x_121 () Real)
(declare-fun x_122 () Bool)
(declare-fun x_123 () Real)
(declare-fun x_124 () Bool)
(declare-fun x_125 () Bool)
(declare-fun x_126 () Real)
(declare-fun x_127 () Bool)
(declare-fun x_128 () Real)
(declare-fun x_129 () Real)
(declare-fun x_130 () Real)
(declare-fun x_131 () Real)
(declare-fun x_132 () Real)
(declare-fun x_133 () Real)
(declare-fun x_134 () Real)
(declare-fun x_135 () Real)
(declare-fun x_136 () Bool)
(declare-fun x_137 () Real)
(declare-fun x_138 () Bool)
(declare-fun x_139 () Bool)
(declare-fun x_140 () Real)
(declare-fun x_141 () Bool)
(declare-fun x_142 () Real)
(declare-fun x_143 () Real)
(declare-fun x_144 () Real)
(declare-fun x_145 () Real)
(declare-fun x_146 () Real)
(declare-fun x_147 () Real)
(declare-fun x_148 () Real)
(declare-fun x_149 () Real)
(declare-fun x_150 () Bool)
(declare-fun x_151 () Real)
(declare-fun x_152 () Bool)
(declare-fun x_153 () Bool)
(declare-fun x_154 () Real)
(declare-fun x_155 () Bool)
(declare-fun x_156 () Real)
(declare-fun x_157 () Real)
(declare-fun x_158 () Real)
(declare-fun x_159 () Real)
(declare-fun x_160 () Real)
(declare-fun x_161 () Real)
(declare-fun x_162 () Real)
(declare-fun x_163 () Real)
(declare-fun x_164 () Bool)
(declare-fun x_165 () Real)
(declare-fun x_166 () Bool)
(declare-fun x_167 () Bool)
(declare-fun x_168 () Real)
(declare-fun x_169 () Bool)
(declare-fun x_170 () Real)
(declare-fun x_171 () Real)
(declare-fun x_172 () Real)
(declare-fun x_173 () Real)
(declare-fun x_174 () Real)
(declare-fun x_175 () Real)
(declare-fun x_176 () Real)
(declare-fun x_177 () Real)
(declare-fun x_178 () Bool)
(declare-fun x_179 () Real)
(declare-fun x_180 () Bool)
(declare-fun x_181 () Bool)
(declare-fun x_182 () Real)
(declare-fun x_183 () Bool)
(declare-fun x_184 () Real)
(declare-fun x_185 () Real)
(declare-fun x_186 () Real)
(declare-fun x_187 () Real)
(declare-fun x_188 () Real)
(declare-fun x_189 () Real)
(declare-fun x_190 () Real)
(declare-fun x_191 () Real)
(declare-fun x_192 () Bool)
(declare-fun x_193 () Real)
(declare-fun x_194 () Bool)
(declare-fun x_195 () Bool)
(declare-fun x_196 () Real)
(declare-fun x_197 () Bool)
(declare-fun x_198 () Real)
(declare-fun x_199 () Real)
(declare-fun x_200 () Real)
(declare-fun x_201 () Real)
(declare-fun x_202 () Real)
(declare-fun x_203 () Real)
(declare-fun x_204 () Real)
(declare-fun x_205 () Real)
(declare-fun x_206 () Bool)
(declare-fun x_207 () Real)
(declare-fun x_208 () Bool)
(declare-fun x_209 () Bool)
(declare-fun x_210 () Real)
(declare-fun x_211 () Bool)
(declare-fun x_212 () Real)
(declare-fun x_213 () Real)
(declare-fun x_214 () Real)
(declare-fun x_215 () Real)
(declare-fun x_216 () Real)
(declare-fun x_217 () Real)
(declare-fun x_218 () Real)
(declare-fun x_219 () Real)
(declare-fun x_220 () Bool)
(declare-fun x_221 () Real)
(declare-fun x_222 () Real)
(declare-fun x_223 () Bool)
(declare-fun x_224 () Bool)
(declare-fun x_225 () Bool)
(declare-fun x_226 () Bool)
(declare-fun x_227 () Real)
(declare-fun x_228 () Bool)
(declare-fun x_229 () Real)
(declare-fun x_230 () Real)
(declare-fun x_231 () Real)
(declare-fun x_232 () Real)
(assert (let ((?v_149 (= x_48 x_49)) (?v_150 (= x_50 x_51)) (?v_151 (= x_52 x_53)) (?v_147 (= x_54 x_55))) (let ((?v_152 (not ?v_147)) (?v_155 (= x_56 x_57)) (?v_144 (= x_58 x_59)) (?v_145 (= x_7 x_3)) (?v_148 (ite (<= x_50 x_54) x_50 x_54)) (?v_143 (ite (<= x_54 x_50) x_54 x_50)) (?v_136 (= x_75 x_48)) (?v_137 (= x_51 x_76)) (?v_138 (= x_77 x_52)) (?v_134 (= x_55 x_78))) (let ((?v_139 (not ?v_134)) (?v_142 (= x_79 x_56)) (?v_131 (= x_80 x_58)) (?v_132 (= x_11 x_7)) (?v_135 (ite (<= x_51 x_55) x_51 x_55)) (?v_130 (ite (<= x_55 x_51) x_55 x_51)) (?v_123 (= x_89 x_75)) (?v_124 (= x_76 x_90)) (?v_125 (= x_91 x_77)) (?v_121 (= x_78 x_92))) (let ((?v_126 (not ?v_121)) (?v_129 (= x_93 x_79)) (?v_118 (= x_94 x_80)) (?v_119 (= x_15 x_11)) (?v_122 (ite (<= x_76 x_78) x_76 x_78)) (?v_117 (ite (<= x_78 x_76) x_78 x_76)) (?v_110 (= x_103 x_89)) (?v_111 (= x_90 x_104)) (?v_112 (= x_105 x_91)) (?v_108 (= x_92 x_106))) (let ((?v_113 (not ?v_108)) (?v_116 (= x_107 x_93)) (?v_105 (= x_108 x_94)) (?v_106 (= x_19 x_15)) (?v_109 (ite (<= x_90 x_92) x_90 x_92)) (?v_104 (ite (<= x_92 x_90) x_92 x_90)) (?v_97 (= x_117 x_103)) (?v_98 (= x_104 x_118)) (?v_99 (= x_119 x_105)) (?v_95 (= x_106 x_120))) (let ((?v_100 (not ?v_95)) (?v_103 (= x_121 x_107)) (?v_92 (= x_122 x_108)) (?v_93 (= x_23 x_19)) (?v_96 (ite (<= x_104 x_106) x_104 x_106)) (?v_91 (ite (<= x_106 x_104) x_106 x_104)) (?v_84 (= x_131 x_117)) (?v_85 (= x_118 x_132)) (?v_86 (= x_133 x_119)) (?v_82 (= x_120 x_134))) (let ((?v_87 (not ?v_82)) (?v_90 (= x_135 x_121)) (?v_79 (= x_136 x_122)) (?v_80 (= x_27 x_23)) (?v_83 (ite (<= x_118 x_120) x_118 x_120)) (?v_78 (ite (<= x_120 x_118) x_120 x_118)) (?v_71 (= x_145 x_131)) (?v_72 (= x_132 x_146)) (?v_73 (= x_147 x_133)) (?v_69 (= x_134 x_148))) (let ((?v_74 (not ?v_69)) (?v_77 (= x_149 x_135)) (?v_66 (= x_150 x_136)) (?v_67 (= x_31 x_27)) (?v_70 (ite (<= x_132 x_134) x_132 x_134)) (?v_65 (ite (<= x_134 x_132) x_134 x_132)) (?v_58 (= x_159 x_145)) (?v_59 (= x_146 x_160)) (?v_60 (= x_161 x_147)) (?v_56 (= x_148 x_162))) (let ((?v_61 (not ?v_56)) (?v_64 (= x_163 x_149)) (?v_53 (= x_164 x_150)) (?v_54 (= x_35 x_31)) (?v_57 (ite (<= x_146 x_148) x_146 x_148)) (?v_52 (ite (<= x_148 x_146) x_148 x_146)) (?v_45 (= x_173 x_159)) (?v_46 (= x_160 x_174)) (?v_47 (= x_175 x_161)) (?v_43 (= x_162 x_176))) (let ((?v_48 (not ?v_43)) (?v_51 (= x_177 x_163)) (?v_40 (= x_178 x_164)) (?v_41 (= x_39 x_35)) (?v_44 (ite (<= x_160 x_162) x_160 x_162)) (?v_39 (ite (<= x_162 x_160) x_162 x_160)) (?v_32 (= x_187 x_173)) (?v_33 (= x_174 x_188)) (?v_34 (= x_189 x_175)) (?v_30 (= x_176 x_190))) (let ((?v_35 (not ?v_30)) (?v_38 (= x_191 x_177)) (?v_27 (= x_192 x_178)) (?v_28 (= x_43 x_39)) (?v_31 (ite (<= x_174 x_176) x_174 x_176)) (?v_26 (ite (<= x_176 x_174) x_176 x_174)) (?v_19 (= x_201 x_187)) (?v_20 (= x_188 x_202)) (?v_21 (= x_203 x_189)) (?v_17 (= x_190 x_204))) (let ((?v_22 (not ?v_17)) (?v_25 (= x_205 x_191)) (?v_14 (= x_206 x_192)) (?v_15 (= x_47 x_43)) (?v_18 (ite (<= x_188 x_190) x_188 x_190)) (?v_13 (ite (<= x_190 x_188) x_190 x_188)) (?v_6 (= x_215 x_201)) (?v_7 (= x_202 x_216)) (?v_8 (= x_217 x_203)) (?v_4 (= x_204 x_218))) (let ((?v_9 (not ?v_4)) (?v_12 (= x_219 x_205)) (?v_1 (= x_220 x_206)) (?v_2 (= x_221 x_47)) (?v_5 (ite (<= x_202 x_204) x_202 x_204)) (?v_0 (ite (<= x_204 x_202) x_204 x_202)) (?v_3 (= x_224 x_45)) (?v_11 (= x_47 x_221)) (?v_16 (= x_45 x_41)) (?v_24 (= x_43 x_47)) (?v_29 (= x_41 x_37)) (?v_37 (= x_39 x_43)) (?v_42 (= x_37 x_33)) (?v_50 (= x_35 x_39)) (?v_55 (= x_33 x_29)) (?v_63 (= x_31 x_35)) (?v_68 (= x_29 x_25)) (?v_76 (= x_27 x_31)) (?v_81 (= x_25 x_21)) (?v_89 (= x_23 x_27)) (?v_94 (= x_21 x_17)) (?v_102 (= x_19 x_23)) (?v_107 (= x_17 x_13)) (?v_115 (= x_15 x_19)) (?v_120 (= x_13 x_9)) (?v_128 (= x_11 x_15)) (?v_133 (= x_9 x_5)) (?v_141 (= x_7 x_11)) (?v_146 (= x_5 x_1)) (?v_154 (= x_3 x_7))) (let ((?v_10 (+ ?v_5 x_62)) (?v_23 (+ ?v_18 x_62)) (?v_36 (+ ?v_31 x_62)) (?v_49 (+ ?v_44 x_62)) (?v_62 (+ ?v_57 x_62)) (?v_75 (+ ?v_70 x_62)) (?v_88 (+ ?v_83 x_62)) (?v_101 (+ ?v_96 x_62)) (?v_114 (+ ?v_109 x_62)) (?v_127 (+ ?v_122 x_62)) (?v_140 (+ ?v_135 x_62)) (?v_153 (+ ?v_148 x_62))) (and (and (and (and (and (and (and (and (and (and (and (and (and (and (and (and (and (and (and (and (and (and (and (and (and (and (and (and (and (and (and (and (and (and (and (and (and (and (and (and (and (and (and (and (and (and (and (and (and (and (and (and (and (and (and (and (and (and (and (and (and (and (and (and (and (and (and (and (and (> x_60 0) (> x_61 0)) (>= x_62 0)) (< x_62 x_60)) (< x_62 x_61)) (>= x_73 0)) (< x_73 x_60)) (< x_73 x_61)) (or (= x_44 x_45) (= x_46 x_47))) (or (= x_40 x_41) (= x_42 x_43))) (or (= x_36 x_37) (= x_38 x_39))) (or (= x_32 x_33) (= x_34 x_35))) (or (= x_28 x_29) (= x_30 x_31))) (or (= x_24 x_25) (= x_26 x_27))) (or (= x_20 x_21) (= x_22 x_23))) (or (= x_16 x_17) (= x_18 x_19))) (or (= x_12 x_13) (= x_14 x_15))) (or (= x_8 x_9) (= x_10 x_11))) (or (= x_4 x_5) (= x_6 x_7))) (or (= x_0 x_1) (= x_2 x_3))) (or (and (and (and (and (and (and (and (and (and (= x_222 0) (= x_223 x_211)) (= ?v_0 x_204)) (<= (+ ?v_0 x_60) x_218)) (or ?v_3 (= x_224 x_44))) (= x_225 x_208)) (= x_226 x_209)) (= x_216 x_202)) ?v_1) ?v_2) (and (and (and (and (and (and (and (and (and (= x_222 1) (= x_226 x_208)) (= ?v_0 x_202)) (<= (+ ?v_0 x_61) x_216)) (or (and (and (= x_227 0) ?v_1) ?v_2) (and (and (= x_227 1) (= x_206 x_209)) (= x_220 (not x_206))))) (= x_228 x_211)) (= x_223 x_44)) (= x_229 x_46)) (= x_218 x_204)) ?v_3))) (or (or (and (and (and (= x_230 0) ?v_9) (or (not (<= x_201 ?v_5)) (= x_228 x_206))) ?v_6) (and (and (and (= x_230 1) ?v_4) (xor x_206 x_220)) (= x_215 ?v_10))) (and (and (and (= x_230 2) ?v_4) (= x_206 x_220)) ?v_6))) (or (or (and (and (and (= x_231 0) (not ?v_7)) (or (not (<= x_203 ?v_0)) (= x_225 x_45))) ?v_8) (and (and (and (= x_231 1) ?v_7) (xor x_45 x_224)) (= x_217 (+ ?v_0 x_73)))) (and (and (and (= x_231 2) ?v_7) (= x_45 x_224)) ?v_8))) (or (or (and (and (and (= x_232 0) ?v_9) (or (not (<= x_205 ?v_5)) (= x_229 x_47))) ?v_12) (and (and (and (= x_232 1) ?v_4) (not ?v_11)) (= x_219 ?v_10))) (and (and (and (= x_232 2) ?v_4) ?v_11) ?v_12))) (or (and (and (and (and (and (and (and (and (and (= x_207 0) (= x_44 x_197)) (= ?v_13 x_190)) (<= (+ ?v_13 x_60) x_204)) (or ?v_16 (= x_45 x_40))) (= x_208 x_194)) (= x_209 x_195)) (= x_202 x_188)) ?v_14) ?v_15) (and (and (and (and (and (and (and (and (and (= x_207 1) (= x_209 x_194)) (= ?v_13 x_188)) (<= (+ ?v_13 x_61) x_202)) (or (and (and (= x_210 0) ?v_14) ?v_15) (and (and (= x_210 1) (= x_192 x_195)) (= x_206 (not x_192))))) (= x_211 x_197)) (= x_44 x_40)) (= x_46 x_42)) (= x_204 x_190)) ?v_16))) (or (or (and (and (and (= x_212 0) ?v_22) (or (not (<= x_187 ?v_18)) (= x_211 x_192))) ?v_19) (and (and (and (= x_212 1) ?v_17) (xor x_192 x_206)) (= x_201 ?v_23))) (and (and (and (= x_212 2) ?v_17) (= x_192 x_206)) ?v_19))) (or (or (and (and (and (= x_213 0) (not ?v_20)) (or (not (<= x_189 ?v_13)) (= x_208 x_41))) ?v_21) (and (and (and (= x_213 1) ?v_20) (xor x_41 x_45)) (= x_203 (+ ?v_13 x_73)))) (and (and (and (= x_213 2) ?v_20) (= x_41 x_45)) ?v_21))) (or (or (and (and (and (= x_214 0) ?v_22) (or (not (<= x_191 ?v_18)) (= x_46 x_43))) ?v_25) (and (and (and (= x_214 1) ?v_17) (not ?v_24)) (= x_205 ?v_23))) (and (and (and (= x_214 2) ?v_17) ?v_24) ?v_25))) (or (and (and (and (and (and (and (and (and (and (= x_193 0) (= x_40 x_183)) (= ?v_26 x_176)) (<= (+ ?v_26 x_60) x_190)) (or ?v_29 (= x_41 x_36))) (= x_194 x_180)) (= x_195 x_181)) (= x_188 x_174)) ?v_27) ?v_28) (and (and (and (and (and (and (and (and (and (= x_193 1) (= x_195 x_180)) (= ?v_26 x_174)) (<= (+ ?v_26 x_61) x_188)) (or (and (and (= x_196 0) ?v_27) ?v_28) (and (and (= x_196 1) (= x_178 x_181)) (= x_192 (not x_178))))) (= x_197 x_183)) (= x_40 x_36)) (= x_42 x_38)) (= x_190 x_176)) ?v_29))) (or (or (and (and (and (= x_198 0) ?v_35) (or (not (<= x_173 ?v_31)) (= x_197 x_178))) ?v_32) (and (and (and (= x_198 1) ?v_30) (xor x_178 x_192)) (= x_187 ?v_36))) (and (and (and (= x_198 2) ?v_30) (= x_178 x_192)) ?v_32))) (or (or (and (and (and (= x_199 0) (not ?v_33)) (or (not (<= x_175 ?v_26)) (= x_194 x_37))) ?v_34) (and (and (and (= x_199 1) ?v_33) (xor x_37 x_41)) (= x_189 (+ ?v_26 x_73)))) (and (and (and (= x_199 2) ?v_33) (= x_37 x_41)) ?v_34))) (or (or (and (and (and (= x_200 0) ?v_35) (or (not (<= x_177 ?v_31)) (= x_42 x_39))) ?v_38) (and (and (and (= x_200 1) ?v_30) (not ?v_37)) (= x_191 ?v_36))) (and (and (and (= x_200 2) ?v_30) ?v_37) ?v_38))) (or (and (and (and (and (and (and (and (and (and (= x_179 0) (= x_36 x_169)) (= ?v_39 x_162)) (<= (+ ?v_39 x_60) x_176)) (or ?v_42 (= x_37 x_32))) (= x_180 x_166)) (= x_181 x_167)) (= x_174 x_160)) ?v_40) ?v_41) (and (and (and (and (and (and (and (and (and (= x_179 1) (= x_181 x_166)) (= ?v_39 x_160)) (<= (+ ?v_39 x_61) x_174)) (or (and (and (= x_182 0) ?v_40) ?v_41) (and (and (= x_182 1) (= x_164 x_167)) (= x_178 (not x_164))))) (= x_183 x_169)) (= x_36 x_32)) (= x_38 x_34)) (= x_176 x_162)) ?v_42))) (or (or (and (and (and (= x_184 0) ?v_48) (or (not (<= x_159 ?v_44)) (= x_183 x_164))) ?v_45) (and (and (and (= x_184 1) ?v_43) (xor x_164 x_178)) (= x_173 ?v_49))) (and (and (and (= x_184 2) ?v_43) (= x_164 x_178)) ?v_45))) (or (or (and (and (and (= x_185 0) (not ?v_46)) (or (not (<= x_161 ?v_39)) (= x_180 x_33))) ?v_47) (and (and (and (= x_185 1) ?v_46) (xor x_33 x_37)) (= x_175 (+ ?v_39 x_73)))) (and (and (and (= x_185 2) ?v_46) (= x_33 x_37)) ?v_47))) (or (or (and (and (and (= x_186 0) ?v_48) (or (not (<= x_163 ?v_44)) (= x_38 x_35))) ?v_51) (and (and (and (= x_186 1) ?v_43) (not ?v_50)) (= x_177 ?v_49))) (and (and (and (= x_186 2) ?v_43) ?v_50) ?v_51))) (or (and (and (and (and (and (and (and (and (and (= x_165 0) (= x_32 x_155)) (= ?v_52 x_148)) (<= (+ ?v_52 x_60) x_162)) (or ?v_55 (= x_33 x_28))) (= x_166 x_152)) (= x_167 x_153)) (= x_160 x_146)) ?v_53) ?v_54) (and (and (and (and (and (and (and (and (and (= x_165 1) (= x_167 x_152)) (= ?v_52 x_146)) (<= (+ ?v_52 x_61) x_160)) (or (and (and (= x_168 0) ?v_53) ?v_54) (and (and (= x_168 1) (= x_150 x_153)) (= x_164 (not x_150))))) (= x_169 x_155)) (= x_32 x_28)) (= x_34 x_30)) (= x_162 x_148)) ?v_55))) (or (or (and (and (and (= x_170 0) ?v_61) (or (not (<= x_145 ?v_57)) (= x_169 x_150))) ?v_58) (and (and (and (= x_170 1) ?v_56) (xor x_150 x_164)) (= x_159 ?v_62))) (and (and (and (= x_170 2) ?v_56) (= x_150 x_164)) ?v_58))) (or (or (and (and (and (= x_171 0) (not ?v_59)) (or (not (<= x_147 ?v_52)) (= x_166 x_29))) ?v_60) (and (and (and (= x_171 1) ?v_59) (xor x_29 x_33)) (= x_161 (+ ?v_52 x_73)))) (and (and (and (= x_171 2) ?v_59) (= x_29 x_33)) ?v_60))) (or (or (and (and (and (= x_172 0) ?v_61) (or (not (<= x_149 ?v_57)) (= x_34 x_31))) ?v_64) (and (and (and (= x_172 1) ?v_56) (not ?v_63)) (= x_163 ?v_62))) (and (and (and (= x_172 2) ?v_56) ?v_63) ?v_64))) (or (and (and (and (and (and (and (and (and (and (= x_151 0) (= x_28 x_141)) (= ?v_65 x_134)) (<= (+ ?v_65 x_60) x_148)) (or ?v_68 (= x_29 x_24))) (= x_152 x_138)) (= x_153 x_139)) (= x_146 x_132)) ?v_66) ?v_67) (and (and (and (and (and (and (and (and (and (= x_151 1) (= x_153 x_138)) (= ?v_65 x_132)) (<= (+ ?v_65 x_61) x_146)) (or (and (and (= x_154 0) ?v_66) ?v_67) (and (and (= x_154 1) (= x_136 x_139)) (= x_150 (not x_136))))) (= x_155 x_141)) (= x_28 x_24)) (= x_30 x_26)) (= x_148 x_134)) ?v_68))) (or (or (and (and (and (= x_156 0) ?v_74) (or (not (<= x_131 ?v_70)) (= x_155 x_136))) ?v_71) (and (and (and (= x_156 1) ?v_69) (xor x_136 x_150)) (= x_145 ?v_75))) (and (and (and (= x_156 2) ?v_69) (= x_136 x_150)) ?v_71))) (or (or (and (and (and (= x_157 0) (not ?v_72)) (or (not (<= x_133 ?v_65)) (= x_152 x_25))) ?v_73) (and (and (and (= x_157 1) ?v_72) (xor x_25 x_29)) (= x_147 (+ ?v_65 x_73)))) (and (and (and (= x_157 2) ?v_72) (= x_25 x_29)) ?v_73))) (or (or (and (and (and (= x_158 0) ?v_74) (or (not (<= x_135 ?v_70)) (= x_30 x_27))) ?v_77) (and (and (and (= x_158 1) ?v_69) (not ?v_76)) (= x_149 ?v_75))) (and (and (and (= x_158 2) ?v_69) ?v_76) ?v_77))) (or (and (and (and (and (and (and (and (and (and (= x_137 0) (= x_24 x_127)) (= ?v_78 x_120)) (<= (+ ?v_78 x_60) x_134)) (or ?v_81 (= x_25 x_20))) (= x_138 x_124)) (= x_139 x_125)) (= x_132 x_118)) ?v_79) ?v_80) (and (and (and (and (and (and (and (and (and (= x_137 1) (= x_139 x_124)) (= ?v_78 x_118)) (<= (+ ?v_78 x_61) x_132)) (or (and (and (= x_140 0) ?v_79) ?v_80) (and (and (= x_140 1) (= x_122 x_125)) (= x_136 (not x_122))))) (= x_141 x_127)) (= x_24 x_20)) (= x_26 x_22)) (= x_134 x_120)) ?v_81))) (or (or (and (and (and (= x_142 0) ?v_87) (or (not (<= x_117 ?v_83)) (= x_141 x_122))) ?v_84) (and (and (and (= x_142 1) ?v_82) (xor x_122 x_136)) (= x_131 ?v_88))) (and (and (and (= x_142 2) ?v_82) (= x_122 x_136)) ?v_84))) (or (or (and (and (and (= x_143 0) (not ?v_85)) (or (not (<= x_119 ?v_78)) (= x_138 x_21))) ?v_86) (and (and (and (= x_143 1) ?v_85) (xor x_21 x_25)) (= x_133 (+ ?v_78 x_73)))) (and (and (and (= x_143 2) ?v_85) (= x_21 x_25)) ?v_86))) (or (or (and (and (and (= x_144 0) ?v_87) (or (not (<= x_121 ?v_83)) (= x_26 x_23))) ?v_90) (and (and (and (= x_144 1) ?v_82) (not ?v_89)) (= x_135 ?v_88))) (and (and (and (= x_144 2) ?v_82) ?v_89) ?v_90))) (or (and (and (and (and (and (and (and (and (and (= x_123 0) (= x_20 x_113)) (= ?v_91 x_106)) (<= (+ ?v_91 x_60) x_120)) (or ?v_94 (= x_21 x_16))) (= x_124 x_110)) (= x_125 x_111)) (= x_118 x_104)) ?v_92) ?v_93) (and (and (and (and (and (and (and (and (and (= x_123 1) (= x_125 x_110)) (= ?v_91 x_104)) (<= (+ ?v_91 x_61) x_118)) (or (and (and (= x_126 0) ?v_92) ?v_93) (and (and (= x_126 1) (= x_108 x_111)) (= x_122 (not x_108))))) (= x_127 x_113)) (= x_20 x_16)) (= x_22 x_18)) (= x_120 x_106)) ?v_94))) (or (or (and (and (and (= x_128 0) ?v_100) (or (not (<= x_103 ?v_96)) (= x_127 x_108))) ?v_97) (and (and (and (= x_128 1) ?v_95) (xor x_108 x_122)) (= x_117 ?v_101))) (and (and (and (= x_128 2) ?v_95) (= x_108 x_122)) ?v_97))) (or (or (and (and (and (= x_129 0) (not ?v_98)) (or (not (<= x_105 ?v_91)) (= x_124 x_17))) ?v_99) (and (and (and (= x_129 1) ?v_98) (xor x_17 x_21)) (= x_119 (+ ?v_91 x_73)))) (and (and (and (= x_129 2) ?v_98) (= x_17 x_21)) ?v_99))) (or (or (and (and (and (= x_130 0) ?v_100) (or (not (<= x_107 ?v_96)) (= x_22 x_19))) ?v_103) (and (and (and (= x_130 1) ?v_95) (not ?v_102)) (= x_121 ?v_101))) (and (and (and (= x_130 2) ?v_95) ?v_102) ?v_103))) (or (and (and (and (and (and (and (and (and (and (= x_109 0) (= x_16 x_99)) (= ?v_104 x_92)) (<= (+ ?v_104 x_60) x_106)) (or ?v_107 (= x_17 x_12))) (= x_110 x_96)) (= x_111 x_97)) (= x_104 x_90)) ?v_105) ?v_106) (and (and (and (and (and (and (and (and (and (= x_109 1) (= x_111 x_96)) (= ?v_104 x_90)) (<= (+ ?v_104 x_61) x_104)) (or (and (and (= x_112 0) ?v_105) ?v_106) (and (and (= x_112 1) (= x_94 x_97)) (= x_108 (not x_94))))) (= x_113 x_99)) (= x_16 x_12)) (= x_18 x_14)) (= x_106 x_92)) ?v_107))) (or (or (and (and (and (= x_114 0) ?v_113) (or (not (<= x_89 ?v_109)) (= x_113 x_94))) ?v_110) (and (and (and (= x_114 1) ?v_108) (xor x_94 x_108)) (= x_103 ?v_114))) (and (and (and (= x_114 2) ?v_108) (= x_94 x_108)) ?v_110))) (or (or (and (and (and (= x_115 0) (not ?v_111)) (or (not (<= x_91 ?v_104)) (= x_110 x_13))) ?v_112) (and (and (and (= x_115 1) ?v_111) (xor x_13 x_17)) (= x_105 (+ ?v_104 x_73)))) (and (and (and (= x_115 2) ?v_111) (= x_13 x_17)) ?v_112))) (or (or (and (and (and (= x_116 0) ?v_113) (or (not (<= x_93 ?v_109)) (= x_18 x_15))) ?v_116) (and (and (and (= x_116 1) ?v_108) (not ?v_115)) (= x_107 ?v_114))) (and (and (and (= x_116 2) ?v_108) ?v_115) ?v_116))) (or (and (and (and (and (and (and (and (and (and (= x_95 0) (= x_12 x_85)) (= ?v_117 x_78)) (<= (+ ?v_117 x_60) x_92)) (or ?v_120 (= x_13 x_8))) (= x_96 x_82)) (= x_97 x_83)) (= x_90 x_76)) ?v_118) ?v_119) (and (and (and (and (and (and (and (and (and (= x_95 1) (= x_97 x_82)) (= ?v_117 x_76)) (<= (+ ?v_117 x_61) x_90)) (or (and (and (= x_98 0) ?v_118) ?v_119) (and (and (= x_98 1) (= x_80 x_83)) (= x_94 (not x_80))))) (= x_99 x_85)) (= x_12 x_8)) (= x_14 x_10)) (= x_92 x_78)) ?v_120))) (or (or (and (and (and (= x_100 0) ?v_126) (or (not (<= x_75 ?v_122)) (= x_99 x_80))) ?v_123) (and (and (and (= x_100 1) ?v_121) (xor x_80 x_94)) (= x_89 ?v_127))) (and (and (and (= x_100 2) ?v_121) (= x_80 x_94)) ?v_123))) (or (or (and (and (and (= x_101 0) (not ?v_124)) (or (not (<= x_77 ?v_117)) (= x_96 x_9))) ?v_125) (and (and (and (= x_101 1) ?v_124) (xor x_9 x_13)) (= x_91 (+ ?v_117 x_73)))) (and (and (and (= x_101 2) ?v_124) (= x_9 x_13)) ?v_125))) (or (or (and (and (and (= x_102 0) ?v_126) (or (not (<= x_79 ?v_122)) (= x_14 x_11))) ?v_129) (and (and (and (= x_102 1) ?v_121) (not ?v_128)) (= x_93 ?v_127))) (and (and (and (= x_102 2) ?v_121) ?v_128) ?v_129))) (or (and (and (and (and (and (and (and (and (and (= x_81 0) (= x_8 x_70)) (= ?v_130 x_55)) (<= (+ ?v_130 x_60) x_78)) (or ?v_133 (= x_9 x_4))) (= x_82 x_65)) (= x_83 x_67)) (= x_76 x_51)) ?v_131) ?v_132) (and (and (and (and (and (and (and (and (and (= x_81 1) (= x_83 x_65)) (= ?v_130 x_51)) (<= (+ ?v_130 x_61) x_76)) (or (and (and (= x_84 0) ?v_131) ?v_132) (and (and (= x_84 1) (= x_58 x_67)) (= x_80 (not x_58))))) (= x_85 x_70)) (= x_8 x_4)) (= x_10 x_6)) (= x_78 x_55)) ?v_133))) (or (or (and (and (and (= x_86 0) ?v_139) (or (not (<= x_48 ?v_135)) (= x_85 x_58))) ?v_136) (and (and (and (= x_86 1) ?v_134) (xor x_58 x_80)) (= x_75 ?v_140))) (and (and (and (= x_86 2) ?v_134) (= x_58 x_80)) ?v_136))) (or (or (and (and (and (= x_87 0) (not ?v_137)) (or (not (<= x_52 ?v_130)) (= x_82 x_5))) ?v_138) (and (and (and (= x_87 1) ?v_137) (xor x_5 x_9)) (= x_77 (+ ?v_130 x_73)))) (and (and (and (= x_87 2) ?v_137) (= x_5 x_9)) ?v_138))) (or (or (and (and (and (= x_88 0) ?v_139) (or (not (<= x_56 ?v_135)) (= x_10 x_7))) ?v_142) (and (and (and (= x_88 1) ?v_134) (not ?v_141)) (= x_79 ?v_140))) (and (and (and (= x_88 2) ?v_134) ?v_141) ?v_142))) (or (and (and (and (and (and (and (and (and (and (= x_63 0) (= x_4 x_64)) (= ?v_143 x_54)) (<= (+ ?v_143 x_60) x_55)) (or ?v_146 (= x_5 x_0))) (= x_65 x_66)) (= x_67 x_68)) (= x_51 x_50)) ?v_144) ?v_145) (and (and (and (and (and (and (and (and (and (= x_63 1) (= x_67 x_66)) (= ?v_143 x_50)) (<= (+ ?v_143 x_61) x_51)) (or (and (and (= x_69 0) ?v_144) ?v_145) (and (and (= x_69 1) (= x_59 x_68)) (= x_58 (not x_59))))) (= x_70 x_64)) (= x_4 x_0)) (= x_6 x_2)) (= x_55 x_54)) ?v_146))) (or (or (and (and (and (= x_71 0) ?v_152) (or (not (<= x_49 ?v_148)) (= x_70 x_59))) ?v_149) (and (and (and (= x_71 1) ?v_147) (xor x_59 x_58)) (= x_48 ?v_153))) (and (and (and (= x_71 2) ?v_147) (= x_59 x_58)) ?v_149))) (or (or (and (and (and (= x_72 0) (not ?v_150)) (or (not (<= x_53 ?v_143)) (= x_65 x_1))) ?v_151) (and (and (and (= x_72 1) ?v_150) (xor x_1 x_5)) (= x_52 (+ ?v_143 x_73)))) (and (and (and (= x_72 2) ?v_150) (= x_1 x_5)) ?v_151))) (or (or (and (and (and (= x_74 0) ?v_152) (or (not (<= x_57 ?v_148)) (= x_6 x_3))) ?v_155) (and (and (and (= x_74 1) ?v_147) (not ?v_154)) (= x_56 ?v_153))) (and (and (and (= x_74 2) ?v_147) ?v_154) ?v_155))) (xor x_223 x_224)) (not (= x_229 x_221))))))))))))))))))
(check-sat)
(exit)
